p tw 1734 2197
1 2
1 275
3 4
3 107
5 6
5 277
7 8
7 109
9 10
9 108
11 12
11 111
13 14
13 113
15 16
15 110
17 18
17 115
19 20
19 112
21 22
21 117
23 24
23 286
25 26
25 119
27 28
27 114
29 30
29 121
31 32
31 116
33 34
33 123
35 36
35 118
37 38
37 125
39 40
39 294
41 42
41 127
43 44
43 120
45 46
45 129
47 48
47 122
49 50
49 131
51 52
51 124
53 54
53 133
55 56
55 126
57 58
57 303
59 60
59 135
61 62
61 128
63 64
63 137
65 66
65 130
67 68
67 139
69 70
69 132
71 72
71 141
73 74
73 134
75 76
75 136
77 78
77 143
79 80
79 138
81 82
81 145
83 84
83 140
85 86
85 147
87 88
87 142
89 90
89 144
91 92
91 149
93 94
93 146
95 96
95 151
97 98
97 148
99 100
99 150
101 102
101 153
103 104
103 152
105 106
105 154
107 155
107 156
108 156
108 157
109 158
109 159
110 159
110 160
111 161
111 162
112 162
112 163
113 164
113 165
114 165
114 166
115 167
115 168
116 168
116 169
117 170
117 171
118 171
118 172
119 173
119 174
120 174
120 175
121 176
121 177
122 177
122 178
123 179
123 180
124 180
124 181
125 182
125 183
126 183
126 184
127 185
127 186
128 186
128 187
129 188
129 189
130 189
130 190
131 191
131 192
132 192
132 193
133 194
133 195
134 195
134 196
135 197
135 198
136 198
136 199
137 200
137 201
138 201
138 202
139 203
139 204
140 204
140 205
141 206
141 207
142 207
142 208
143 209
143 210
144 210
144 211
145 212
145 213
146 213
146 214
147 215
147 216
148 216
148 217
149 218
149 219
150 219
150 220
151 221
151 222
152 222
152 223
153 224
153 225
154 225
154 226
155 156
155 227
156 157
157 228
158 159
158 229
159 160
160 230
161 162
161 231
162 163
163 232
164 165
164 233
165 166
166 234
167 168
167 235
168 169
169 236
170 171
170 237
171 172
172 238
173 174
173 239
174 175
175 240
176 177
176 241
177 178
178 242
179 180
179 243
180 181
181 244
182 183
182 245
183 184
184 246
185 186
185 247
186 187
187 248
188 189
188 249
189 190
190 250
191 192
191 251
192 193
193 252
194 195
194 253
195 196
196 254
197 198
197 255
198 199
199 256
200 201
200 257
201 202
202 258
203 204
203 259
204 205
205 260
206 207
206 261
207 208
208 262
209 210
209 263
210 211
211 264
212 213
212 265
213 214
214 266
215 216
215 267
216 217
217 268
218 219
218 269
219 220
220 270
221 222
221 271
222 223
223 272
224 225
224 273
225 226
226 274
227 276
228 279
229 278
230 282
231 280
232 284
233 281
234 288
235 283
236 290
237 285
238 292
239 287
240 296
241 289
242 298
243 291
244 300
245 293
246 302
247 295
248 305
249 297
250 307
251 299
252 309
253 301
254 311
255 304
256 312
257 306
258 314
259 308
260 316
261 310
262 318
263 313
264 319
265 315
266 321
267 317
268 323
269 320
270 324
271 322
272 326
273 325
274 327
275 328
276 462
277 330
278 329
279 332
280 466
281 331
282 334
283 333
284 336
285 471
286 338
287 473
288 340
289 335
290 342
291 337
292 344
293 479
294 346
295 339
296 348
297 341
298 350
299 343
300 352
301 345
302 488
303 489
304 347
305 354
306 349
307 356
308 351
309 358
310 353
311 497
312 498
313 355
314 360
315 357
316 362
317 359
318 504
319 505
320 361
321 364
322 363
323 509
324 510
325 365
326 512
327 513
328 366
328 367
329 367
329 368
330 369
330 370
331 370
331 371
332 372
332 373
333 373
333 374
334 375
334 376
335 376
335 377
336 378
336 379
337 379
337 380
338 381
338 382
339 382
339 383
340 384
340 385
341 385
341 386
342 387
342 388
343 388
343 389
344 390
344 391
345 391
345 392
346 393
346 394
347 394
347 395
348 396
348 397
349 397
349 398
350 399
350 400
351 400
351 401
352 402
352 403
353 403
353 404
354 405
354 406
355 406
355 407
356 408
356 409
357 409
357 410
358 411
358 412
359 412
359 413
360 414
360 415
361 415
361 416
362 417
362 418
363 418
363 419
364 420
364 421
365 421
365 422
366 367
366 423
367 368
368 424
369 370
369 425
370 371
371 426
372 373
372 427
373 374
374 428
375 376
375 429
376 377
377 430
378 379
378 431
379 380
380 432
381 382
381 433
382 383
383 434
384 385
384 435
385 386
386 436
387 388
387 437
388 389
389 438
390 391
390 439
391 392
392 440
393 394
393 441
394 395
395 442
396 397
396 443
397 398
398 444
399 400
399 445
400 401
401 446
402 403
402 447
403 404
404 448
405 406
405 449
406 407
407 450
408 409
408 451
409 410
410 452
411 412
411 453
412 413
413 454
414 415
414 455
415 416
416 456
417 418
417 457
418 419
419 458
420 421
420 459
421 422
422 460
423 461
424 464
425 463
426 467
427 465
428 469
429 468
430 475
431 470
432 477
433 472
434 481
435 474
436 483
437 476
438 485
439 478
440 487
441 480
442 490
443 482
444 492
445 484
446 494
447 486
448 496
449 491
450 499
451 493
452 501
453 495
454 503
455 500
456 506
457 502
458 508
459 507
460 511
461 514
462 515
463 516
464 517
465 518
466 519
467 681
468 520
469 521
470 522
471 523
472 524
473 525
474 526
475 527
476 528
477 529
478 530
479 531
480 532
481 533
482 534
483 535
484 536
485 537
486 538
487 539
488 702
489 540
490 541
491 542
492 543
493 544
494 545
495 546
496 547
497 711
498 548
499 549
500 550
501 551
502 552
503 553
504 718
505 554
506 555
507 556
508 557
509 723
510 558
511 559
512 726
513 727
514 560
514 561
515 561
515 562
516 563
516 564
517 564
517 565
518 566
518 567
519 567
519 568
520 569
520 570
521 570
521 571
522 572
522 573
523 573
523 574
524 575
524 576
525 576
525 577
526 578
526 579
527 579
527 580
528 581
528 582
529 582
529 583
530 584
530 585
531 585
531 586
532 587
532 588
533 588
533 589
534 590
534 591
535 591
535 592
536 593
536 594
537 594
537 595
538 596
538 597
539 597
539 598
540 599
540 600
541 600
541 601
542 602
542 603
543 603
543 604
544 605
544 606
545 606
545 607
546 608
546 609
547 609
547 610
548 611
548 612
549 612
549 613
550 614
550 615
551 615
551 616
552 617
552 618
553 618
553 619
554 620
554 621
555 621
555 622
556 623
556 624
557 624
557 625
558 626
558 627
559 627
559 628
560 561
560 629
561 562
562 630
563 564
563 631
564 565
565 632
566 567
566 633
567 568
568 634
569 570
569 635
570 571
571 636
572 573
572 637
573 574
574 638
575 576
575 639
576 577
577 640
578 579
578 641
579 580
580 642
581 582
581 643
582 583
583 644
584 585
584 645
585 586
586 646
587 588
587 647
588 589
589 648
590 591
590 649
591 592
592 650
593 594
593 651
594 595
595 652
596 597
596 653
597 598
598 654
599 600
599 655
600 601
601 656
602 603
602 657
603 604
604 658
605 606
605 659
606 607
607 660
608 609
608 661
609 610
610 662
611 612
611 663
612 613
613 664
614 615
614 665
615 616
616 666
617 618
617 667
618 619
619 668
620 621
620 669
621 622
622 670
623 624
623 671
624 625
625 672
626 627
626 673
627 628
628 674
629 675
630 676
631 677
632 678
633 679
634 680
635 682
636 683
637 684
638 685
639 686
640 687
641 688
642 689
643 690
644 691
645 692
646 693
647 694
648 695
649 696
650 697
651 698
652 699
653 700
654 701
655 703
656 704
657 705
658 706
659 707
660 708
661 709
662 710
663 712
664 713
665 714
666 715
667 716
668 717
669 719
670 720
671 721
672 722
673 724
674 725
675 868
676 869
677 870
678 728
679 729
680 873
681 730
682 731
683 732
684 733
685 878
686 879
687 734
688 735
689 736
690 737
691 738
692 739
693 886
694 887
695 740
696 741
697 742
698 743
699 744
700 745
701 746
702 747
703 896
704 748
705 749
706 750
707 751
708 752
709 753
710 754
711 755
712 905
713 756
714 757
715 758
716 759
717 760
718 761
719 912
720 762
721 763
722 764
723 765
724 917
725 766
726 767
727 920
728 768
728 769
729 769
729 770
730 771
730 772
731 772
731 773
732 774
732 775
733 775
733 776
734 777
734 778
735 778
735 779
736 780
736 781
737 781
737 782
738 783
738 784
739 784
739 785
740 786
740 787
741 787
741 788
742 789
742 790
743 790
743 791
744 792
744 793
745 793
745 794
746 795
746 796
747 796
747 797
748 798
748 799
749 799
749 800
750 801
750 802
751 802
751 803
752 804
752 805
753 805
753 806
754 807
754 808
755 808
755 809
756 810
756 811
757 811
757 812
758 813
758 814
759 814
759 815
760 816
760 817
761 817
761 818
762 819
762 820
763 820
763 821
764 822
764 823
765 823
765 824
766 825
766 826
767 826
767 827
768 769
768 828
769 770
770 829
771 772
771 830
772 773
773 831
774 775
774 832
775 776
776 833
777 778
777 834
778 779
779 835
780 781
780 836
781 782
782 837
783 784
783 838
784 785
785 839
786 787
786 840
787 788
788 841
789 790
789 842
790 791
791 843
792 793
792 844
793 794
794 845
795 796
795 846
796 797
797 847
798 799
798 848
799 800
800 849
801 802
801 850
802 803
803 851
804 805
804 852
805 806
806 853
807 808
807 854
808 809
809 855
810 811
810 856
811 812
812 857
813 814
813 858
814 815
815 859
816 817
816 860
817 818
818 861
819 820
819 862
820 821
821 863
822 823
822 864
823 824
824 865
825 826
825 866
826 827
827 867
828 871
829 872
830 874
831 875
832 876
833 877
834 880
835 881
836 882
837 883
838 884
839 885
840 888
841 889
842 890
843 891
844 892
845 893
846 894
847 895
848 897
849 898
850 899
851 900
852 901
853 902
854 903
855 904
856 906
857 907
858 908
859 909
860 910
861 911
862 913
863 914
864 915
865 916
866 918
867 919
868 921
869 922
870 923
871 924
872 925
873 926
874 1088
875 927
876 928
877 929
878 930
879 931
880 932
881 933
882 934
883 935
884 936
885 937
886 938
887 939
888 940
889 941
890 942
891 943
892 944
893 945
894 946
895 1109
896 947
897 948
898 949
899 950
900 951
901 952
902 953
903 954
904 1118
905 955
906 956
907 957
908 958
909 959
910 960
911 1125
912 961
913 962
914 963
915 964
916 1130
917 965
918 966
919 1133
920 1134
921 967
921 968
922 968
922 969
923 970
923 971
924 971
924 972
925 973
925 974
926 974
926 975
927 976
927 977
928 977
928 978
929 979
929 980
930 980
930 981
931 982
931 983
932 983
932 984
933 985
933 986
934 986
934 987
935 988
935 989
936 989
936 990
937 991
937 992
938 992
938 993
939 994
939 995
940 995
940 996
941 997
941 998
942 998
942 999
943 1000
943 1001
944 1001
944 1002
945 1003
945 1004
946 1004
946 1005
947 1006
947 1007
948 1007
948 1008
949 1009
949 1010
950 1010
950 1011
951 1012
951 1013
952 1013
952 1014
953 1015
953 1016
954 1016
954 1017
955 1018
955 1019
956 1019
956 1020
957 1021
957 1022
958 1022
958 1023
959 1024
959 1025
960 1025
960 1026
961 1027
961 1028
962 1028
962 1029
963 1030
963 1031
964 1031
964 1032
965 1033
965 1034
966 1034
966 1035
967 968
967 1036
968 969
969 1037
970 971
970 1038
971 972
972 1039
973 974
973 1040
974 975
975 1041
976 977
976 1042
977 978
978 1043
979 980
979 1044
980 981
981 1045
982 983
982 1046
983 984
984 1047
985 986
985 1048
986 987
987 1049
988 989
988 1050
989 990
990 1051
991 992
991 1052
992 993
993 1053
994 995
994 1054
995 996
996 1055
997 998
997 1056
998 999
999 1057
1000 1001
1000 1058
1001 1002
1002 1059
1003 1004
1003 1060
1004 1005
1005 1061
1006 1007
1006 1062
1007 1008
1008 1063
1009 1010
1009 1064
1010 1011
1011 1065
1012 1013
1012 1066
1013 1014
1014 1067
1015 1016
1015 1068
1016 1017
1017 1069
1018 1019
1018 1070
1019 1020
1020 1071
1021 1022
1021 1072
1022 1023
1023 1073
1024 1025
1024 1074
1025 1026
1026 1075
1027 1028
1027 1076
1028 1029
1029 1077
1030 1031
1030 1078
1031 1032
1032 1079
1033 1034
1033 1080
1034 1035
1035 1081
1036 1082
1037 1083
1038 1084
1039 1085
1040 1086
1041 1087
1042 1089
1043 1090
1044 1091
1045 1092
1046 1093
1047 1094
1048 1095
1049 1096
1050 1097
1051 1098
1052 1099
1053 1100
1054 1101
1055 1102
1056 1103
1057 1104
1058 1105
1059 1106
1060 1107
1061 1108
1062 1110
1063 1111
1064 1112
1065 1113
1066 1114
1067 1115
1068 1116
1069 1117
1070 1119
1071 1120
1072 1121
1073 1122
1074 1123
1075 1124
1076 1126
1077 1127
1078 1128
1079 1129
1080 1131
1081 1132
1082 1275
1083 1276
1084 1277
1085 1135
1086 1136
1087 1280
1088 1137
1089 1138
1090 1139
1091 1140
1092 1285
1093 1286
1094 1141
1095 1142
1096 1143
1097 1144
1098 1145
1099 1146
1100 1293
1101 1294
1102 1147
1103 1148
1104 1149
1105 1150
1106 1151
1107 1152
1108 1153
1109 1154
1110 1303
1111 1155
1112 1156
1113 1157
1114 1158
1115 1159
1116 1160
1117 1161
1118 1162
1119 1312
1120 1163
1121 1164
1122 1165
1123 1166
1124 1167
1125 1168
1126 1319
1127 1169
1128 1170
1129 1171
1130 1172
1131 1324
1132 1173
1133 1174
1134 1327
1135 1175
1135 1176
1136 1176
1136 1177
1137 1178
1137 1179
1138 1179
1138 1180
1139 1181
1139 1182
1140 1182
1140 1183
1141 1184
1141 1185
1142 1185
1142 1186
1143 1187
1143 1188
1144 1188
1144 1189
1145 1190
1145 1191
1146 1191
1146 1192
1147 1193
1147 1194
1148 1194
1148 1195
1149 1196
1149 1197
1150 1197
1150 1198
1151 1199
1151 1200
1152 1200
1152 1201
1153 1202
1153 1203
1154 1203
1154 1204
1155 1205
1155 1206
1156 1206
1156 1207
1157 1208
1157 1209
1158 1209
1158 1210
1159 1211
1159 1212
1160 1212
1160 1213
1161 1214
1161 1215
1162 1215
1162 1216
1163 1217
1163 1218
1164 1218
1164 1219
1165 1220
1165 1221
1166 1221
1166 1222
1167 1223
1167 1224
1168 1224
1168 1225
1169 1226
1169 1227
1170 1227
1170 1228
1171 1229
1171 1230
1172 1230
1172 1231
1173 1232
1173 1233
1174 1233
1174 1234
1175 1176
1175 1235
1176 1177
1177 1236
1178 1179
1178 1237
1179 1180
1180 1238
1181 1182
1181 1239
1182 1183
1183 1240
1184 1185
1184 1241
1185 1186
1186 1242
1187 1188
1187 1243
1188 1189
1189 1244
1190 1191
1190 1245
1191 1192
1192 1246
1193 1194
1193 1247
1194 1195
1195 1248
1196 1197
1196 1249
1197 1198
1198 1250
1199 1200
1199 1251
1200 1201
1201 1252
1202 1203
1202 1253
1203 1204
1204 1254
1205 1206
1205 1255
1206 1207
1207 1256
1208 1209
1208 1257
1209 1210
1210 1258
1211 1212
1211 1259
1212 1213
1213 1260
1214 1215
1214 1261
1215 1216
1216 1262
1217 1218
1217 1263
1218 1219
1219 1264
1220 1221
1220 1265
1221 1222
1222 1266
1223 1224
1223 1267
1224 1225
1225 1268
1226 1227
1226 1269
1227 1228
1228 1270
1229 1230
1229 1271
1230 1231
1231 1272
1232 1233
1232 1273
1233 1234
1234 1274
1235 1278
1236 1279
1237 1281
1238 1282
1239 1283
1240 1284
1241 1287
1242 1288
1243 1289
1244 1290
1245 1291
1246 1292
1247 1295
1248 1296
1249 1297
1250 1298
1251 1299
1252 1300
1253 1301
1254 1302
1255 1304
1256 1305
1257 1306
1258 1307
1259 1308
1260 1309
1261 1310
1262 1311
1263 1313
1264 1314
1265 1315
1266 1316
1267 1317
1268 1318
1269 1320
1270 1321
1271 1322
1272 1323
1273 1325
1274 1326
1275 1496
1276 1328
1277 1498
1278 1330
1279 1329
1280 1332
1281 1334
1282 1331
1283 1336
1284 1333
1285 1338
1286 1507
1287 1340
1288 1335
1289 1342
1290 1337
1291 1344
1292 1339
1293 1346
1294 1515
1295 1348
1296 1341
1297 1350
1298 1343
1299 1352
1300 1345
1301 1354
1302 1347
1303 1524
1304 1356
1305 1349
1306 1358
1307 1351
1308 1360
1309 1353
1310 1362
1311 1355
1312 1357
1313 1364
1314 1359
1315 1366
1316 1361
1317 1368
1318 1363
1319 1365
1320 1370
1321 1367
1322 1372
1323 1369
1324 1371
1325 1374
1326 1373
1327 1375
1328 1376
1328 1377
1329 1377
1329 1378
1330 1379
1330 1380
1331 1380
1331 1381
1332 1382
1332 1383
1333 1383
1333 1384
1334 1385
1334 1386
1335 1386
1335 1387
1336 1388
1336 1389
1337 1389
1337 1390
1338 1391
1338 1392
1339 1392
1339 1393
1340 1394
1340 1395
1341 1395
1341 1396
1342 1397
1342 1398
1343 1398
1343 1399
1344 1400
1344 1401
1345 1401
1345 1402
1346 1403
1346 1404
1347 1404
1347 1405
1348 1406
1348 1407
1349 1407
1349 1408
1350 1409
1350 1410
1351 1410
1351 1411
1352 1412
1352 1413
1353 1413
1353 1414
1354 1415
1354 1416
1355 1416
1355 1417
1356 1418
1356 1419
1357 1419
1357 1420
1358 1421
1358 1422
1359 1422
1359 1423
1360 1424
1360 1425
1361 1425
1361 1426
1362 1427
1362 1428
1363 1428
1363 1429
1364 1430
1364 1431
1365 1431
1365 1432
1366 1433
1366 1434
1367 1434
1367 1435
1368 1436
1368 1437
1369 1437
1369 1438
1370 1439
1370 1440
1371 1440
1371 1441
1372 1442
1372 1443
1373 1443
1373 1444
1374 1445
1374 1446
1375 1446
1375 1447
1376 1377
1376 1448
1377 1378
1378 1449
1379 1380
1379 1450
1380 1381
1381 1451
1382 1383
1382 1452
1383 1384
1384 1453
1385 1386
1385 1454
1386 1387
1387 1455
1388 1389
1388 1456
1389 1390
1390 1457
1391 1392
1391 1458
1392 1393
1393 1459
1394 1395
1394 1460
1395 1396
1396 1461
1397 1398
1397 1462
1398 1399
1399 1463
1400 1401
1400 1464
1401 1402
1402 1465
1403 1404
1403 1466
1404 1405
1405 1467
1406 1407
1406 1468
1407 1408
1408 1469
1409 1410
1409 1470
1410 1411
1411 1471
1412 1413
1412 1472
1413 1414
1414 1473
1415 1416
1415 1474
1416 1417
1417 1475
1418 1419
1418 1476
1419 1420
1420 1477
1421 1422
1421 1478
1422 1423
1423 1479
1424 1425
1424 1480
1425 1426
1426 1481
1427 1428
1427 1482
1428 1429
1429 1483
1430 1431
1430 1484
1431 1432
1432 1485
1433 1434
1433 1486
1434 1435
1435 1487
1436 1437
1436 1488
1437 1438
1438 1489
1439 1440
1439 1490
1440 1441
1441 1491
1442 1443
1442 1492
1443 1444
1444 1493
1445 1446
1445 1494
1446 1447
1447 1495
1448 1497
1449 1500
1450 1499
1451 1503
1452 1501
1453 1505
1454 1502
1455 1509
1456 1504
1457 1511
1458 1506
1459 1513
1460 1508
1461 1517
1462 1510
1463 1519
1464 1512
1465 1521
1466 1514
1467 1523
1468 1516
1469 1526
1470 1518
1471 1528
1472 1520
1473 1530
1474 1522
1475 1532
1476 1525
1477 1533
1478 1527
1479 1535
1480 1529
1481 1537
1482 1531
1483 1539
1484 1534
1485 1540
1486 1536
1487 1542
1488 1538
1489 1544
1490 1541
1491 1545
1492 1543
1493 1547
1494 1546
1495 1548
1496 1549
1497 1683
1498 1551
1499 1550
1500 1553
1501 1687
1502 1552
1503 1555
1504 1554
1505 1557
1506 1692
1507 1559
1508 1694
1509 1561
1510 1556
1511 1563
1512 1558
1513 1565
1514 1700
1515 1567
1516 1560
1517 1569
1518 1562
1519 1571
1520 1564
1521 1573
1522 1566
1523 1709
1524 1710
1525 1568
1526 1575
1527 1570
1528 1577
1529 1572
1530 1579
1531 1574
1532 1718
1533 1719
1534 1576
1535 1581
1536 1578
1537 1583
1538 1580
1539 1725
1540 1726
1541 1582
1542 1585
1543 1584
1544 1730
1545 1731
1546 1586
1547 1733
1548 1734
1549 1587
1549 1588
1550 1588
1550 1589
1551 1590
1551 1591
1552 1591
1552 1592
1553 1593
1553 1594
1554 1594
1554 1595
1555 1596
1555 1597
1556 1597
1556 1598
1557 1599
1557 1600
1558 1600
1558 1601
1559 1602
1559 1603
1560 1603
1560 1604
1561 1605
1561 1606
1562 1606
1562 1607
1563 1608
1563 1609
1564 1609
1564 1610
1565 1611
1565 1612
1566 1612
1566 1613
1567 1614
1567 1615
1568 1615
1568 1616
1569 1617
1569 1618
1570 1618
1570 1619
1571 1620
1571 1621
1572 1621
1572 1622
1573 1623
1573 1624
1574 1624
1574 1625
1575 1626
1575 1627
1576 1627
1576 1628
1577 1629
1577 1630
1578 1630
1578 1631
1579 1632
1579 1633
1580 1633
1580 1634
1581 1635
1581 1636
1582 1636
1582 1637
1583 1638
1583 1639
1584 1639
1584 1640
1585 1641
1585 1642
1586 1642
1586 1643
1587 1588
1587 1644
1588 1589
1589 1645
1590 1591
1590 1646
1591 1592
1592 1647
1593 1594
1593 1648
1594 1595
1595 1649
1596 1597
1596 1650
1597 1598
1598 1651
1599 1600
1599 1652
1600 1601
1601 1653
1602 1603
1602 1654
1603 1604
1604 1655
1605 1606
1605 1656
1606 1607
1607 1657
1608 1609
1608 1658
1609 1610
1610 1659
1611 1612
1611 1660
1612 1613
1613 1661
1614 1615
1614 1662
1615 1616
1616 1663
1617 1618
1617 1664
1618 1619
1619 1665
1620 1621
1620 1666
1621 1622
1622 1667
1623 1624
1623 1668
1624 1625
1625 1669
1626 1627
1626 1670
1627 1628
1628 1671
1629 1630
1629 1672
1630 1631
1631 1673
1632 1633
1632 1674
1633 1634
1634 1675
1635 1636
1635 1676
1636 1637
1637 1677
1638 1639
1638 1678
1639 1640
1640 1679
1641 1642
1641 1680
1642 1643
1643 1681
1644 1682
1645 1685
1646 1684
1647 1688
1648 1686
1649 1690
1650 1689
1651 1696
1652 1691
1653 1698
1654 1693
1655 1702
1656 1695
1657 1704
1658 1697
1659 1706
1660 1699
1661 1708
1662 1701
1663 1711
1664 1703
1665 1713
1666 1705
1667 1715
1668 1707
1669 1717
1670 1712
1671 1720
1672 1714
1673 1722
1674 1716
1675 1724
1676 1721
1677 1727
1678 1723
1679 1729
1680 1728
1681 1732
